db/inputs/2867332045208385970445427968150246509.smt2
(set-logic QF_FP)
(declare-const x0 (_ FloatingPoint 8 24))
(declare-const x1 (_ FloatingPoint 8 24))
(declare-const x2 (_ FloatingPoint 8 24))
(declare-const x3 (_ FloatingPoint 8 24))
(declare-const x4 (_ FloatingPoint 8 24))
(declare-const x5 (_ FloatingPoint 8 24))
(declare-const x6 (_ FloatingPoint 8 24))
(declare-const x7 (_ FloatingPoint 8 24))
(declare-const x8 (_ FloatingPoint 8 24))
(declare-const x9 (_ FloatingPoint 8 24))
(declare-const x10 (_ FloatingPoint 8 24))
(declare-const x11 (_ FloatingPoint 8 24))
(declare-const x12 (_ FloatingPoint 8 24))
(declare-const x13 (_ FloatingPoint 8 24))
(declare-const x14 (_ FloatingPoint 8 24))
(assert (fp.eq (fp.add RNE x13 x6) (fp.add RNE x3 x9)))
(assert (fp.geq (fp.neg x2) (fp.add RNE x7 x6)))
(assert (fp.gt (fp.sub RNE x2 x0) (fp.mul RNE x12 x9)))
(assert (fp.lt (fp.neg x11) (fp.div RNE x14 x4)))
(assert (fp.geq (fp.sub RNE x6 x1) (fp.div RNE x8 x0)))
(assert (fp.lt (fp.add RNE x2 x9) (fp.sub RNE x9 x5)))
(assert (fp.geq (fp.mul RNE x8 x7) (fp.neg x6)))
(assert (fp.lt (fp.div RNE x4 x5) (fp.neg x13)))
(assert (fp.eq (fp.mul RNE x0 x7) (fp.add RNE x14 x0)))
(assert (fp.leq (fp.mul RNE x2 x4) (fp.add RNE x11 x8)))
(assert (fp.gt (fp.add RNE x0 x14) (fp.mul RNE x14 x6)))
(assert (fp.gt (fp.add RNE x0 x13) (fp.mul RNE x0 x5)))
(assert (fp.lt (fp.neg x10) (fp.neg x0)))
(assert (fp.geq (fp.add RNE x12 x3) (fp.mul RNE x14 x11)))
(check-sat)
