db/data/2867332045208385970445427968150246509.z3.out
sat
-------------------
44.438076283
